1 3 100 222797.99
1 3 200 224998.97
1 3 300 225088.99
2 3 100 282162.76
2 3 200 288667.55
2 3 300 283364.33
3 3 100 261878.44
3 3 200 272046.66
3 3 300 259188.37
4 3 100 245805.90
4 3 200 245574.08
4 3 300 245254.98
5 3 100 229447.99
5 3 200 235750.88
5 3 300 236034.17
